p edge 90 1193
e 1 4
e 1 9
e 1 15
e 1 22
e 1 25
e 1 27
e 1 29
e 1 34
e 1 44
e 1 45
e 1 54
e 1 56
e 1 57
e 1 59
e 1 67
e 1 71
e 1 72
e 1 76
e 1 79
e 1 81
e 1 82
e 1 84
e 1 86
e 1 90
e 2 4
e 2 5
e 2 11
e 2 15
e 2 18
e 2 24
e 2 25
e 2 26
e 2 32
e 2 38
e 2 46
e 2 55
e 2 58
e 2 64
e 2 68
e 2 77
e 2 80
e 2 82
e 2 83
e 2 84
e 3 16
e 3 19
e 3 20
e 3 21
e 3 23
e 3 26
e 3 29
e 3 31
e 3 32
e 3 39
e 3 42
e 3 44
e 3 49
e 3 56
e 3 57
e 3 58
e 3 60
e 3 61
e 3 63
e 3 66
e 3 68
e 3 69
e 3 73
e 3 74
e 3 78
e 3 79
e 3 83
e 3 86
e 3 90
e 4 14
e 4 16
e 4 19
e 4 20
e 4 23
e 4 25
e 4 33
e 4 37
e 4 39
e 4 40
e 4 42
e 4 43
e 4 52
e 4 53
e 4 54
e 4 55
e 4 61
e 4 65
e 4 66
e 4 68
e 4 69
e 4 72
e 4 76
e 4 77
e 4 84
e 4 88
e 5 7
e 5 8
e 5 10
e 5 11
e 5 15
e 5 16
e 5 19
e 5 21
e 5 25
e 5 27
e 5 28
e 5 29
e 5 30
e 5 31
e 5 33
e 5 36
e 5 41
e 5 42
e 5 45
e 5 48
e 5 49
e 5 55
e 5 57
e 5 59
e 5 61
e 5 63
e 5 67
e 5 68
e 5 72
e 5 74
e 5 77
e 5 78
e 5 86
e 5 87
e 5 88
e 5 89
e 5 90
e 6 8
e 6 9
e 6 17
e 6 18
e 6 23
e 6 25
e 6 29
e 6 33
e 6 35
e 6 37
e 6 38
e 6 41
e 6 44
e 6 45
e 6 49
e 6 50
e 6 53
e 6 63
e 6 66
e 6 68
e 6 70
e 6 76
e 6 78
e 6 79
e 6 83
e 6 90
e 7 11
e 7 16
e 7 18
e 7 20
e 7 21
e 7 22
e 7 25
e 7 32
e 7 35
e 7 36
e 7 38
e 7 39
e 7 45
e 7 49
e 7 52
e 7 65
e 7 67
e 7 79
e 7 83
e 7 86
e 7 88
e 8 10
e 8 12
e 8 14
e 8 36
e 8 39
e 8 40
e 8 47
e 8 49
e 8 62
e 8 67
e 8 70
e 8 74
e 8 75
e 8 76
e 8 77
e 8 79
e 8 80
e 8 84
e 8 85
e 9 10
e 9 13
e 9 14
e 9 20
e 9 23
e 9 27
e 9 30
e 9 33
e 9 34
e 9 36
e 9 37
e 9 39
e 9 54
e 9 64
e 9 65
e 9 66
e 9 72
e 9 73
e 9 86
e 9 88
e 10 14
e 10 15
e 10 17
e 10 30
e 10 34
e 10 36
e 10 41
e 10 44
e 10 53
e 10 55
e 10 57
e 10 58
e 10 59
e 10 61
e 10 65
e 10 77
e 10 81
e 10 86
e 10 87
e 10 89
e 11 12
e 11 19
e 11 24
e 11 27
e 11 30
e 11 33
e 11 34
e 11 40
e 11 41
e 11 42
e 11 44
e 11 46
e 11 54
e 11 64
e 11 66
e 11 74
e 11 78
e 11 81
e 11 82
e 11 86
e 11 87
e 11 89
e 12 15
e 12 17
e 12 18
e 12 25
e 12 26
e 12 27
e 12 29
e 12 30
e 12 31
e 12 35
e 12 38
e 12 40
e 12 51
e 12 55
e 12 57
e 12 59
e 12 64
e 12 65
e 12 73
e 12 74
e 12 76
e 12 78
e 12 79
e 12 81
e 12 82
e 12 84
e 12 89
e 13 16
e 13 21
e 13 22
e 13 28
e 13 32
e 13 33
e 13 36
e 13 37
e 13 42
e 13 43
e 13 45
e 13 51
e 13 52
e 13 53
e 13 57
e 13 59
e 13 66
e 13 69
e 13 72
e 13 73
e 13 79
e 13 85
e 13 86
e 13 89
e 13 90
e 14 18
e 14 20
e 14 22
e 14 23
e 14 25
e 14 27
e 14 29
e 14 34
e 14 35
e 14 39
e 14 41
e 14 43
e 14 54
e 14 56
e 14 58
e 14 67
e 14 68
e 14 73
e 14 78
e 14 79
e 14 81
e 14 82
e 14 87
e 14 88
e 14 90
e 15 19
e 15 20
e 15 27
e 15 30
e 15 31
e 15 32
e 15 36
e 15 38
e 15 39
e 15 41
e 15 42
e 15 44
e 15 45
e 15 52
e 15 57
e 15 59
e 15 62
e 15 65
e 15 70
e 15 71
e 15 73
e 15 74
e 15 75
e 15 76
e 15 77
e 15 81
e 15 84
e 15 85
e 16 18
e 16 22
e 16 25
e 16 26
e 16 28
e 16 29
e 16 32
e 16 37
e 16 45
e 16 47
e 16 57
e 16 59
e 16 60
e 16 67
e 16 72
e 16 80
e 16 83
e 16 85
e 16 90
e 17 20
e 17 22
e 17 31
e 17 33
e 17 35
e 17 40
e 17 42
e 17 44
e 17 47
e 17 51
e 17 52
e 17 53
e 17 54
e 17 57
e 17 60
e 17 64
e 17 70
e 17 77
e 17 84
e 17 86
e 17 87
e 17 89
e 18 20
e 18 23
e 18 27
e 18 28
e 18 31
e 18 33
e 18 41
e 18 42
e 18 44
e 18 48
e 18 50
e 18 54
e 18 61
e 18 70
e 18 73
e 18 74
e 18 76
e 18 82
e 18 85
e 18 86
e 18 89
e 18 90
e 19 27
e 19 34
e 19 40
e 19 41
e 19 50
e 19 54
e 19 56
e 19 57
e 19 63
e 19 65
e 19 69
e 19 72
e 19 76
e 19 80
e 19 81
e 19 88
e 19 89
e 19 90
e 20 22
e 20 23
e 20 24
e 20 26
e 20 42
e 20 46
e 20 48
e 20 50
e 20 56
e 20 61
e 20 63
e 20 65
e 20 67
e 20 68
e 20 69
e 20 70
e 20 83
e 20 85
e 20 86
e 20 87
e 20 90
e 21 26
e 21 31
e 21 32
e 21 42
e 21 44
e 21 48
e 21 53
e 21 56
e 21 57
e 21 59
e 21 60
e 21 64
e 21 65
e 21 81
e 21 83
e 21 88
e 21 89
e 22 24
e 22 26
e 22 28
e 22 33
e 22 38
e 22 40
e 22 41
e 22 44
e 22 48
e 22 54
e 22 55
e 22 56
e 22 57
e 22 59
e 22 61
e 22 62
e 22 68
e 22 76
e 22 77
e 22 81
e 22 84
e 22 88
e 22 89
e 23 26
e 23 27
e 23 28
e 23 29
e 23 30
e 23 39
e 23 43
e 23 45
e 23 46
e 23 49
e 23 52
e 23 53
e 23 59
e 23 62
e 23 63
e 23 67
e 23 74
e 23 75
e 23 79
e 23 80
e 24 25
e 24 26
e 24 34
e 24 37
e 24 41
e 24 50
e 24 51
e 24 58
e 24 67
e 24 68
e 24 74
e 24 75
e 24 76
e 24 78
e 24 80
e 24 88
e 24 89
e 25 30
e 25 35
e 25 40
e 25 42
e 25 55
e 25 56
e 25 58
e 25 68
e 25 71
e 25 72
e 25 87
e 26 27
e 26 30
e 26 38
e 26 40
e 26 44
e 26 49
e 26 51
e 26 57
e 26 58
e 26 59
e 26 61
e 26 63
e 26 68
e 26 75
e 26 76
e 26 78
e 26 79
e 26 82
e 26 89
e 27 28
e 27 31
e 27 37
e 27 38
e 27 43
e 27 44
e 27 46
e 27 50
e 27 57
e 27 61
e 27 62
e 27 65
e 27 71
e 27 76
e 27 77
e 27 79
e 27 80
e 27 83
e 27 84
e 27 86
e 27 87
e 27 90
e 28 30
e 28 31
e 28 33
e 28 35
e 28 36
e 28 38
e 28 40
e 28 41
e 28 42
e 28 47
e 28 54
e 28 58
e 28 60
e 28 61
e 28 65
e 28 66
e 28 67
e 28 68
e 28 70
e 28 72
e 28 73
e 28 86
e 28 89
e 29 30
e 29 35
e 29 36
e 29 39
e 29 42
e 29 43
e 29 45
e 29 61
e 29 66
e 29 68
e 29 70
e 29 71
e 29 74
e 29 75
e 29 77
e 29 78
e 29 79
e 29 81
e 29 87
e 30 36
e 30 39
e 30 40
e 30 45
e 30 48
e 30 51
e 30 55
e 30 63
e 30 64
e 30 68
e 30 69
e 30 70
e 30 71
e 30 73
e 30 79
e 30 84
e 30 85
e 30 86
e 30 87
e 30 88
e 30 89
e 31 34
e 31 35
e 31 41
e 31 45
e 31 54
e 31 60
e 31 64
e 31 70
e 31 72
e 31 77
e 31 79
e 31 80
e 31 86
e 31 90
e 32 33
e 32 35
e 32 36
e 32 42
e 32 59
e 32 60
e 32 66
e 32 67
e 32 76
e 32 77
e 32 82
e 32 83
e 32 86
e 32 90
e 33 34
e 33 35
e 33 37
e 33 38
e 33 41
e 33 43
e 33 45
e 33 49
e 33 51
e 33 52
e 33 55
e 33 56
e 33 59
e 33 60
e 33 68
e 33 69
e 33 80
e 33 83
e 33 85
e 33 88
e 33 90
e 34 52
e 34 53
e 34 55
e 34 56
e 34 61
e 34 63
e 34 64
e 34 75
e 34 76
e 34 77
e 34 78
e 34 79
e 34 80
e 34 85
e 35 37
e 35 49
e 35 57
e 35 62
e 35 63
e 35 64
e 35 66
e 35 75
e 35 84
e 35 89
e 35 90
e 36 38
e 36 44
e 36 45
e 36 46
e 36 48
e 36 50
e 36 51
e 36 58
e 36 63
e 36 64
e 36 69
e 36 70
e 36 74
e 36 79
e 36 82
e 36 83
e 36 84
e 36 87
e 37 41
e 37 44
e 37 52
e 37 53
e 37 54
e 37 56
e 37 58
e 37 61
e 37 64
e 37 65
e 37 72
e 37 73
e 37 78
e 37 79
e 37 80
e 37 83
e 37 85
e 37 87
e 37 90
e 38 39
e 38 40
e 38 41
e 38 43
e 38 46
e 38 47
e 38 50
e 38 53
e 38 54
e 38 55
e 38 57
e 38 58
e 38 61
e 38 68
e 38 73
e 38 74
e 38 77
e 38 82
e 38 89
e 39 40
e 39 41
e 39 47
e 39 51
e 39 56
e 39 60
e 39 62
e 39 64
e 39 70
e 39 73
e 39 76
e 39 79
e 39 81
e 39 90
e 40 43
e 40 48
e 40 51
e 40 53
e 40 57
e 40 58
e 40 59
e 40 61
e 40 64
e 40 66
e 40 68
e 40 69
e 40 77
e 40 79
e 40 90
e 41 42
e 41 43
e 41 45
e 41 47
e 41 49
e 41 51
e 41 62
e 41 70
e 41 71
e 41 72
e 41 74
e 41 76
e 41 78
e 41 79
e 41 81
e 41 82
e 41 83
e 41 84
e 41 86
e 41 88
e 41 89
e 42 43
e 42 49
e 42 53
e 42 54
e 42 56
e 42 61
e 42 71
e 42 73
e 42 80
e 42 85
e 43 45
e 43 47
e 43 50
e 43 52
e 43 53
e 43 54
e 43 56
e 43 65
e 43 68
e 43 75
e 43 81
e 43 85
e 44 48
e 44 49
e 44 62
e 44 63
e 44 65
e 44 67
e 44 70
e 44 86
e 44 87
e 44 90
e 45 47
e 45 48
e 45 52
e 45 53
e 45 57
e 45 60
e 45 61
e 45 65
e 45 66
e 45 68
e 45 70
e 45 76
e 45 81
e 45 85
e 45 87
e 46 51
e 46 53
e 46 58
e 46 64
e 46 67
e 46 68
e 46 69
e 46 72
e 46 77
e 46 78
e 46 81
e 46 82
e 46 83
e 46 84
e 46 86
e 46 90
e 47 61
e 47 64
e 47 66
e 47 67
e 47 68
e 47 69
e 47 71
e 47 75
e 47 77
e 47 79
e 47 81
e 47 82
e 47 84
e 47 89
e 48 58
e 48 59
e 48 63
e 48 64
e 48 68
e 48 70
e 48 74
e 48 75
e 48 77
e 48 78
e 48 79
e 48 81
e 48 87
e 48 88
e 48 89
e 49 56
e 49 58
e 49 60
e 49 61
e 49 64
e 49 65
e 49 66
e 49 69
e 49 72
e 49 74
e 49 86
e 50 55
e 50 57
e 50 59
e 50 63
e 50 64
e 50 72
e 50 74
e 50 75
e 50 78
e 50 81
e 50 83
e 50 85
e 50 90
e 51 55
e 51 57
e 51 58
e 51 62
e 51 64
e 51 71
e 51 76
e 51 78
e 51 79
e 51 81
e 51 82
e 51 84
e 51 87
e 52 53
e 52 56
e 52 60
e 52 62
e 52 63
e 52 66
e 52 73
e 52 74
e 52 83
e 52 89
e 53 54
e 53 57
e 53 67
e 53 68
e 53 73
e 53 80
e 53 88
e 53 90
e 54 55
e 54 56
e 54 59
e 54 62
e 54 67
e 54 73
e 54 76
e 54 82
e 54 83
e 54 86
e 54 89
e 54 90
e 55 56
e 55 57
e 55 59
e 55 61
e 55 63
e 55 64
e 55 76
e 55 77
e 55 78
e 55 83
e 55 86
e 55 87
e 56 61
e 56 68
e 56 71
e 56 73
e 56 77
e 56 80
e 56 83
e 56 87
e 56 88
e 57 62
e 57 64
e 57 70
e 57 71
e 57 72
e 57 75
e 57 77
e 57 79
e 57 88
e 57 89
e 58 61
e 58 64
e 58 66
e 58 77
e 58 79
e 58 82
e 58 84
e 58 85
e 58 90
e 59 61
e 59 65
e 59 67
e 59 72
e 59 73
e 59 75
e 59 79
e 59 80
e 59 81
e 59 86
e 60 61
e 60 62
e 60 66
e 60 67
e 60 68
e 60 70
e 60 71
e 60 74
e 60 76
e 60 77
e 60 78
e 60 80
e 60 84
e 60 85
e 60 86
e 60 88
e 61 63
e 61 65
e 61 68
e 61 72
e 61 74
e 61 75
e 61 76
e 61 80
e 61 81
e 61 82
e 61 83
e 61 84
e 61 87
e 61 89
e 62 63
e 62 64
e 62 68
e 62 70
e 62 76
e 62 77
e 62 84
e 62 87
e 63 65
e 63 68
e 63 69
e 63 74
e 63 76
e 63 77
e 63 86
e 63 87
e 64 67
e 64 71
e 64 72
e 64 76
e 64 83
e 64 89
e 65 72
e 65 73
e 65 79
e 65 80
e 65 84
e 65 87
e 66 67
e 66 69
e 66 80
e 66 88
e 67 69
e 67 75
e 67 79
e 67 82
e 67 83
e 67 87
e 67 88
e 67 90
e 68 70
e 68 77
e 68 82
e 68 83
e 68 84
e 69 70
e 69 71
e 69 73
e 69 77
e 69 80
e 69 89
e 69 90
e 70 78
e 70 80
e 70 83
e 70 85
e 70 88
e 71 75
e 71 79
e 71 81
e 71 83
e 72 73
e 72 79
e 72 85
e 72 89
e 73 77
e 73 87
e 73 88
e 73 89
e 74 75
e 74 77
e 74 81
e 74 83
e 74 88
e 74 90
e 75 78
e 75 79
e 75 86
e 75 90
e 76 77
e 76 78
e 76 81
e 76 82
e 76 86
e 77 78
e 77 82
e 77 86
e 77 88
e 77 90
e 78 84
e 78 89
e 79 80
e 79 89
e 80 81
e 80 82
e 80 83
e 80 84
e 80 86
e 80 89
e 81 89
e 82 89
e 83 88
e 83 90
e 84 90
e 85 86
e 85 88
e 85 90
e 86 87
e 86 89
e 87 89
e 88 89